c Result of efficient AIG-to-CNF conversion using package CNF
p cnf 510 1735
-2 3 201 202 208 0
-2 3 -201 -202 208 0
2 -208 0
2 -201 202 0
2 -3 0
2 201 -202 0
3 4 -193 0
3 -4 193 0
-3 -4 -193 0
-3 4 193 0
4 -5 120 127 0
4 5 -120 127 0
-4 -127 0
-4 -5 -120 0
-4 5 120 0
5 6 -112 0
5 -6 112 0
-5 -6 -112 0
-5 6 112 0
6 7 -96 0
6 -7 96 0
-6 -7 -96 0
-6 7 96 0
7 8 -79 0
7 -8 79 0
-7 -8 -79 0
-7 8 79 0
8 9 -50 0
8 -9 50 0
-8 -9 -50 0
-8 9 50 0
9 -478 -10 0
-9 478 0
-9 10 0
10 -477 11 -22 0
-10 477 0
-10 -11 0
-10 22 0
-11 12 18 20 21 0
11 -21 0
11 -12 0
11 -20 0
11 -18 0
-12 470 471 13 15 0
12 -470 0
12 -15 0
12 -13 0
12 -471 0
-13 462 468 469 14 0
13 -14 0
13 -469 0
13 -462 0
13 -468 0
-14 466 467 472 0
14 -466 0
14 -472 0
14 -467 0
-15 463 464 465 16 0
15 -16 0
15 -465 0
15 -463 0
15 -464 0
-16 458 459 17 0
16 -17 0
16 -459 0
16 -458 0
-17 454 455 460 461 0
17 -461 0
17 -460 0
17 -454 0
17 -455 0
-18 452 456 457 19 0
18 -19 0
18 -457 0
18 -452 0
18 -456 0
-19 450 451 0
19 -450 0
19 -451 0
-20 446 453 0
20 -446 0
20 -453 0
-21 447 448 449 0
21 -447 0
21 -449 0
21 -448 0
-22 473 23 0
-22 -473 37 0
22 -473 -37 0
22 473 -23 0
-23 474 24 0
-23 -474 30 0
23 -474 -30 0
23 474 -24 0
-24 475 25 0
-24 -475 27 0
24 -475 -27 0
24 475 -25 0
-25 -476 26 0
-25 447 476 0
25 -476 -26 0
25 -447 476 0
26 -449 -477 0
26 -448 477 0
-26 448 477 0
-26 449 -477 0
27 476 -28 0
27 -476 -29 0
-27 -476 29 0
-27 476 28 0
28 -451 -477 0
28 -450 477 0
-28 450 477 0
-28 451 -477 0
29 -453 -477 0
29 -452 477 0
-29 452 477 0
-29 453 -477 0
30 475 -31 0
30 -475 -34 0
-30 -475 34 0
-30 475 31 0
31 476 -32 0
31 -476 -33 0
-31 -476 33 0
-31 476 32 0
32 -455 -477 0
32 -454 477 0
-32 454 477 0
-32 455 -477 0
33 -457 -477 0
33 -456 477 0
-33 456 477 0
-33 457 -477 0
34 476 -35 0
34 -476 -36 0
-34 -476 36 0
-34 476 35 0
35 -459 -477 0
35 -458 477 0
-35 458 477 0
-35 459 -477 0
36 -461 -477 0
36 -460 477 0
-36 460 477 0
-36 461 -477 0
37 474 -38 0
37 -474 -45 0
-37 -474 45 0
-37 474 38 0
38 475 -39 0
38 -475 -42 0
-38 -475 42 0
-38 475 39 0
39 476 -40 0
39 -476 -41 0
-39 -476 41 0
-39 476 40 0
40 -463 -477 0
40 -462 477 0
-40 462 477 0
-40 463 -477 0
41 -465 -477 0
41 -464 477 0
-41 464 477 0
-41 465 -477 0
42 476 -43 0
42 -476 -44 0
-42 -476 44 0
-42 476 43 0
43 -467 -477 0
43 -466 477 0
-43 466 477 0
-43 467 -477 0
44 -469 -477 0
44 -468 477 0
-44 468 477 0
-44 469 -477 0
45 475 -46 0
45 -475 -49 0
-45 -475 49 0
-45 475 46 0
46 476 -47 0
46 -476 -48 0
-46 -476 48 0
-46 476 47 0
47 -471 -477 0
47 -470 477 0
-47 470 477 0
-47 471 -477 0
48 -473 -477 0
48 -472 477 0
-48 472 477 0
-48 473 -477 0
-49 475 476 -477 0
-49 474 476 477 0
49 -476 0
49 -474 477 0
49 -475 -477 0
50 -476 -51 0
-50 476 0
-50 51 0
51 -479 11 -52 0
-51 479 0
-51 -11 0
-51 52 0
-52 473 53 0
-52 -473 67 0
52 -473 -67 0
52 473 -53 0
-53 474 54 0
-53 -474 60 0
53 -474 -60 0
53 474 -54 0
-54 -475 57 0
-54 475 55 56 0
54 475 -55 0
54 -475 -57 0
54 475 -56 0
55 -449 -476 477 0
55 -450 -476 -477 0
-55 476 0
-55 450 -477 0
-55 449 477 0
56 -447 476 477 0
56 -448 476 -477 0
-56 -476 0
-56 448 -477 0
-56 447 477 0
57 476 -58 0
57 -476 -59 0
-57 -476 59 0
-57 476 58 0
58 -452 -477 0
58 -451 477 0
-58 451 477 0
-58 452 -477 0
59 -454 -477 0
59 -453 477 0
-59 453 477 0
-59 454 -477 0
60 475 -61 0
60 -475 -64 0
-60 -475 64 0
-60 475 61 0
61 476 -62 0
61 -476 -63 0
-61 -476 63 0
-61 476 62 0
62 -456 -477 0
62 -455 477 0
-62 455 477 0
-62 456 -477 0
63 -458 -477 0
63 -457 477 0
-63 457 477 0
-63 458 -477 0
64 476 -65 0
64 -476 -66 0
-64 -476 66 0
-64 476 65 0
65 -460 -477 0
65 -459 477 0
-65 459 477 0
-65 460 -477 0
66 -462 -477 0
66 -461 477 0
-66 461 477 0
-66 462 -477 0
67 474 -68 0
67 -474 -75 0
-67 -474 75 0
-67 474 68 0
68 475 -69 0
68 -475 -72 0
-68 -475 72 0
-68 475 69 0
69 476 -70 0
69 -476 -71 0
-69 -476 71 0
-69 476 70 0
70 -464 -477 0
70 -463 477 0
-70 463 477 0
-70 464 -477 0
71 -466 -477 0
71 -465 477 0
-71 465 477 0
-71 466 -477 0
72 476 -73 0
72 -476 -74 0
-72 -476 74 0
-72 476 73 0
73 -468 -477 0
73 -467 477 0
-73 467 477 0
-73 468 -477 0
74 -470 -477 0
74 -469 477 0
-74 469 477 0
-74 470 -477 0
-75 -475 -476 0
-75 475 76 0
-75 -475 -477 0
75 475 -76 0
75 -475 476 477 0
76 476 -77 0
76 -476 -78 0
-76 -476 78 0
-76 476 77 0
77 -472 -477 0
77 -471 477 0
-77 471 477 0
-77 472 -477 0
78 -474 -477 0
78 -473 477 0
-78 473 477 0
-78 474 -477 0
79 -475 -80 0
-79 475 0
-79 80 0
80 -480 -81 0
-80 480 0
-80 81 0
81 -473 11 -89 0
81 473 11 -82 0
-81 -11 0
-81 -473 89 0
-81 473 82 0
-82 474 83 0
-82 -474 86 0
82 -474 -86 0
82 474 -83 0
-83 475 84 0
-83 -475 85 0
83 -475 -85 0
83 475 -84 0
-84 -476 28 0
-84 476 26 0
84 476 -26 0
84 -476 -28 0
85 476 -29 0
85 -476 -32 0
-85 -476 32 0
-85 476 29 0
86 475 -87 0
86 -475 -88 0
-86 -475 88 0
-86 475 87 0
87 476 -33 0
87 -476 -35 0
-87 -476 35 0
-87 476 33 0
88 476 -36 0
88 -476 -40 0
-88 -476 40 0
-88 476 36 0
89 474 -90 0
89 -474 -93 0
-89 -474 93 0
-89 474 90 0
90 475 -91 0
90 -475 -92 0
-90 -475 92 0
-90 475 91 0
91 476 -41 0
91 -476 -43 0
-91 -476 43 0
-91 476 41 0
92 476 -44 0
92 -476 -47 0
-92 -476 47 0
-92 476 44 0
93 475 -94 0
93 -475 476 -477 0
-93 -475 -476 0
-93 475 94 0
-93 -475 477 0
94 476 -48 0
94 -476 -95 0
-94 -476 95 0
-94 476 48 0
95 -475 -477 0
95 -474 477 0
-95 474 477 0
-95 475 -477 0
96 -481 -97 0
-96 481 0
-96 97 0
97 -473 11 -106 0
97 473 11 -98 0
-97 -11 0
-97 -473 106 0
-97 473 98 0
-98 474 99 0
-98 -474 103 0
98 -474 -103 0
98 474 -99 0
-99 475 100 0
-99 -475 102 0
99 -475 -102 0
99 475 -100 0
-100 -476 58 0
-100 476 101 0
100 476 -101 0
100 -476 -58 0
101 -450 -477 0
101 -449 477 0
-101 449 477 0
-101 450 -477 0
102 476 -59 0
102 -476 -62 0
-102 -476 62 0
-102 476 59 0
103 475 -104 0
103 -475 -105 0
-103 -475 105 0
-103 475 104 0
104 476 -63 0
104 -476 -65 0
-104 -476 65 0
-104 476 63 0
105 476 -66 0
105 -476 -70 0
-105 -476 70 0
-105 476 66 0
106 474 -107 0
106 -474 -110 0
-106 -474 110 0
-106 474 107 0
107 475 -108 0
107 -475 -109 0
-107 -475 109 0
-107 475 108 0
108 476 -71 0
108 -476 -73 0
-108 -476 73 0
-108 476 71 0
109 476 -74 0
109 -476 -77 0
-109 -476 77 0
-109 476 74 0
110 475 -111 0
-110 -475 0
-110 111 0
111 -475 -476 0
111 476 -78 0
111 -476 -477 0
-111 476 78 0
-111 475 -476 477 0
112 -482 -113 0
-112 482 0
-112 113 0
113 -473 11 -117 0
113 473 11 -114 0
-113 -11 0
-113 -473 117 0
-113 473 114 0
-114 474 115 0
-114 -474 116 0
114 -474 -116 0
114 474 -115 0
-115 -475 31 0
-115 475 27 0
115 475 -27 0
115 -475 -31 0
116 475 -34 0
116 -475 -39 0
-116 -475 39 0
-116 475 34 0
117 474 -118 0
117 -474 -119 0
-117 -474 119 0
-117 474 118 0
118 475 -42 0
118 -475 -46 0
-118 -475 46 0
-118 475 42 0
119 475 -476 0
119 -474 475 477 0
-119 -475 0
-119 476 -477 0
-119 474 476 0
-120 121 124 0
120 -121 0
120 -124 0
121 -122 -123 0
-121 122 0
-121 123 0
-122 51 80 0
-122 476 477 0
-122 477 80 0
-122 476 51 0
122 -477 -51 0
122 -476 -80 0
123 -474 -112 0
-123 474 0
-123 112 0
124 -125 -126 0
-124 125 0
-124 126 0
125 -477 -96 0
-125 477 0
-125 96 0
126 -476 -112 0
-126 476 0
-126 112 0
127 -128 -173 0
-127 128 0
-127 173 0
-128 129 138 149 156 0
128 -149 0
128 -156 0
128 -129 0
128 -138 0
-129 -124 130 -137 0
-129 124 130 137 0
129 -130 0
129 -124 137 0
129 124 -137 0
130 -483 -131 0
-130 483 0
-130 131 0
131 -473 11 -135 0
131 473 11 -132 0
-131 -11 0
-131 -473 135 0
-131 473 132 0
132 474 -133 0
132 -474 -134 0
-132 -474 134 0
-132 474 133 0
133 475 -57 0
133 -475 -61 0
-133 -475 61 0
-133 475 57 0
134 475 -64 0
134 -475 -69 0
-134 -475 69 0
-134 475 64 0
135 474 -136 0
-135 -474 0
-135 136 0
136 475 -72 0
136 -475 -76 0
-136 -475 76 0
-136 475 72 0
137 122 -123 0
137 -122 123 0
-137 -122 -123 0
-137 122 123 0
138 -139 -141 0
-138 139 0
-138 141 0
139 124 -140 0
139 -475 -112 124 0
-139 -124 0
-139 475 140 0
-139 112 140 0
-140 80 96 0
-140 476 477 0
-140 477 96 0
-140 476 80 0
140 -477 -80 0
140 -476 -96 0
141 -484 -142 0
-141 484 0
-141 142 0
142 -473 11 -146 0
142 473 11 -143 0
-142 -11 0
-142 -473 146 0
-142 473 143 0
-143 474 144 0
-143 -474 145 0
143 -474 -145 0
143 474 -144 0
-144 -475 87 0
-144 475 85 0
144 475 -85 0
144 -475 -87 0
145 475 -88 0
145 -475 -91 0
-145 -475 91 0
-145 475 88 0
146 474 -148 0
146 -474 475 -147 0
-146 -474 -475 0
-146 474 148 0
-146 -474 147 0
147 476 -477 0
-147 -476 0
-147 477 0
148 475 -92 0
148 -475 -94 0
-148 -475 94 0
-148 475 92 0
-149 150 153 0
149 -150 0
149 -153 0
150 -151 -152 0
-150 151 0
-150 152 0
-151 -125 -126 130 0
-151 125 126 130 0
151 -130 0
151 -125 126 0
151 125 -126 0
152 -474 -141 0
-152 474 0
-152 141 0
153 -154 -155 0
-153 154 0
-153 155 0
-154 477 130 0
-154 112 130 0
154 -130 0
154 -477 -112 0
155 -475 -141 0
-155 475 0
-155 141 0
156 -157 -159 0
-156 157 0
-156 159 0
157 149 -158 0
157 -149 158 0
-157 -149 -158 0
-157 149 158 0
158 139 -141 0
158 -139 141 0
-158 -139 -141 0
-158 139 141 0
-159 160 169 0
159 -160 0
159 -169 0
160 -161 -168 0
-160 161 0
-160 168 0
161 -485 -162 0
-161 485 0
-161 162 0
162 -473 11 -166 0
162 473 11 -163 0
-162 -11 0
-162 -473 166 0
-162 473 163 0
163 474 -164 0
163 -474 -165 0
-163 -474 165 0
-163 474 164 0
164 475 -102 0
164 -475 -104 0
-164 -475 104 0
-164 475 102 0
165 475 -105 0
165 -475 -108 0
-165 -475 108 0
-165 475 105 0
166 474 -167 0
-166 -474 0
-166 167 0
167 -475 -476 0
167 475 -109 0
167 -475 -78 0
-167 475 109 0
-167 -475 476 78 0
168 151 -152 153 0
168 -151 152 153 0
-168 -153 0
-168 151 152 0
-168 -151 -152 0
169 -170 -171 0
-169 170 0
-169 171 0
170 154 -155 0
170 -154 155 0
-170 -154 -155 0
-170 154 155 0
171 -141 -172 0
-171 141 0
-171 172 0
172 -476 -161 0
-172 476 0
-172 161 0
173 -174 -175 0
-173 174 0
-173 175 0
174 -157 159 0
174 157 -159 0
-174 157 159 0
-174 -157 -159 0
175 -176 -177 0
-175 176 0
-175 177 0
176 161 -168 169 0
176 -161 168 169 0
-176 -169 0
-176 161 168 0
-176 -161 -168 0
-177 178 184 0
177 -178 0
177 -184 0
178 -179 -183 0
-178 179 0
-178 183 0
179 -486 -180 0
-179 486 0
-179 180 0
180 -473 11 -182 0
180 473 11 -181 0
-180 -11 0
-180 -473 182 0
-180 473 181 0
181 474 -30 0
181 -474 -38 0
-181 -474 38 0
-181 474 30 0
182 474 -45 0
-182 -474 0
-182 45 0
183 170 -171 0
183 -170 171 0
-183 -170 -171 0
-183 170 171 0
184 -185 -186 0
-184 185 0
-184 186 0
-185 476 161 0
-185 141 161 0
185 -161 0
185 -476 -141 0
-186 187 190 0
186 -187 0
186 -190 0
187 -188 -189 0
-187 188 0
-187 189 0
188 -477 -161 0
-188 477 0
-188 161 0
189 -476 -179 0
-189 476 0
-189 179 0
190 -191 -192 0
-190 191 0
-190 192 0
191 141 -172 0
191 -141 172 0
-191 -141 -172 0
-191 141 172 0
192 -475 -179 0
-192 475 0
-192 179 0
193 -478 194 -195 0
193 -478 194 -197 0
-193 478 0
-193 -194 0
-193 195 197 0
194 -475 -113 0
-194 475 0
-194 113 0
-195 476 196 0
-195 81 196 0
195 -196 0
195 -476 -81 0
196 -476 -97 0
-196 476 0
-196 97 0
197 474 -113 0
197 113 -198 0
-197 -474 -113 0
-197 113 198 0
-198 97 199 0
-198 97 -200 0
198 -97 0
198 -199 200 0
-199 10 195 0
199 -10 0
199 -195 0
200 -475 -81 0
-200 475 0
-200 81 0
201 128 -173 0
201 -128 173 0
-201 -128 -173 0
-201 128 173 0
202 -479 194 -203 0
202 -479 194 -206 0
-202 479 0
-202 -194 0
-202 203 206 0
-203 131 196 204 0
203 -131 0
203 -204 0
203 -196 0
204 195 -205 0
-204 -195 0
-204 205 0
205 -474 -113 0
-205 474 0
-205 113 0
206 -142 -207 0
-206 142 0
-206 207 0
207 -194 196 0
207 -477 -81 196 0
-207 -196 0
-207 477 194 0
-207 81 194 0
-208 209 210 212 222 0
-208 -209 -210 212 222 0
208 -212 0
208 209 -210 0
208 -222 0
208 -209 210 0
209 174 -175 0
209 -174 175 0
-209 -174 -175 0
-209 174 175 0
210 -480 194 -211 0
210 -480 -131 194 0
-210 480 0
-210 -194 0
-210 131 211 0
-211 142 207 0
211 -142 0
211 -207 0
212 213 -214 0
212 -213 214 0
-212 -213 -214 0
-212 213 214 0
213 -176 177 0
213 176 -177 0
-213 176 177 0
-213 -176 -177 0
214 -481 194 -215 0
214 -481 194 -219 0
-214 481 0
-214 -194 0
-214 215 219 0
215 131 -162 0
215 131 194 -216 0
-215 -131 0
-215 162 216 0
-215 162 -194 0
216 -131 218 0
216 -217 218 0
-216 -218 0
-216 131 217 0
217 476 -477 -97 0
217 -476 97 -113 0
-217 -476 -97 0
-217 476 97 0
-217 97 113 0
-217 477 -97 0
218 -474 -142 0
-218 474 0
-218 142 0
219 -180 -220 0
-219 180 0
-219 220 0
-220 477 131 221 0
-220 113 131 221 0
220 -221 0
220 -131 0
220 -477 -113 0
221 -475 -142 0
-221 475 0
-221 142 0
-222 223 231 236 246 0
-222 -223 -231 236 246 0
222 -246 0
222 -223 231 0
222 -236 0
222 223 -231 0
-223 -184 -224 225 0
-223 184 224 225 0
223 -225 0
223 -184 224 0
223 184 -224 0
224 179 -183 0
224 -179 183 0
-224 -179 -183 0
-224 179 183 0
225 -226 -230 0
-225 226 0
-225 230 0
226 -487 -227 0
-226 487 0
-226 227 0
227 -473 11 -229 0
227 473 11 -228 0
-227 -11 0
-227 -473 229 0
-227 473 228 0
228 474 -60 0
228 -474 -68 0
-228 -474 68 0
-228 474 60 0
229 474 -75 0
-229 -474 0
-229 75 0
230 -185 186 0
230 185 -186 0
-230 185 186 0
-230 -185 -186 0
231 -482 -232 0
231 -482 -234 0
231 -482 -233 0
-231 482 0
-231 232 233 234 0
232 -476 -162 0
-232 476 0
-232 162 0
233 -180 220 0
233 180 -220 0
-233 180 220 0
-233 -180 -220 0
234 -227 -235 0
-234 227 0
-234 235 0
235 476 -162 0
235 162 -219 0
-235 -476 -162 0
-235 162 219 0
236 237 -245 0
236 -237 245 0
-236 -237 -245 0
-236 237 245 0
-237 -226 -230 238 0
-237 226 230 238 0
237 -238 0
237 -226 230 0
237 226 -230 0
238 -239 -241 0
-238 239 0
-238 241 0
239 187 -240 0
239 -187 240 0
-239 -187 -240 0
-239 187 240 0
240 191 -192 0
240 -191 192 0
-240 -191 -192 0
-240 191 192 0
241 -488 -242 0
-241 488 0
-241 242 0
242 -473 11 -244 0
242 473 11 -243 0
-242 -11 0
-242 -473 244 0
-242 473 243 0
243 474 -86 0
243 -474 -90 0
-243 -474 90 0
-243 474 86 0
244 474 -93 0
-244 -474 0
-244 93 0
245 -483 227 -235 0
245 -483 -227 235 0
-245 483 0
-245 -227 -235 0
-245 227 235 0
-246 247 266 271 274 0
-246 -247 -266 271 274 0
246 -274 0
246 -247 266 0
246 -271 0
246 247 -266 0
-247 239 241 248 258 0
-247 -239 -241 248 258 0
247 -248 0
247 -239 241 0
247 -258 0
247 239 -241 0
248 -249 -253 0
-248 249 0
-248 253 0
249 -489 -250 0
-249 489 0
-249 250 0
250 -473 11 -252 0
250 473 11 -251 0
-250 -11 0
-250 -473 252 0
-250 473 251 0
251 474 -103 0
251 -474 -107 0
-251 -474 107 0
-251 474 103 0
252 474 -110 0
-252 -474 0
-252 110 0
-253 475 254 255 0
-253 226 254 255 0
253 -255 0
253 -254 0
253 -475 -226 0
254 188 -189 0
254 -188 189 0
-254 -188 -189 0
-254 188 189 0
255 -256 -257 0
-255 256 0
-255 257 0
-256 179 226 0
-256 476 477 0
-256 477 226 0
-256 476 179 0
256 -477 -179 0
256 -476 -226 0
257 -475 -241 0
-257 475 0
-257 241 0
258 -259 -260 0
-258 259 0
-258 260 0
259 -249 253 0
259 249 -253 0
-259 249 253 0
-259 -249 -253 0
260 -261 -262 0
-260 261 0
-260 262 0
261 256 -257 0
261 -256 257 0
-261 -256 -257 0
-261 256 257 0
262 -490 -263 0
-262 490 0
-262 263 0
263 -473 11 -265 0
263 473 11 -264 0
-263 -11 0
-263 -473 265 0
-263 473 264 0
264 474 -116 0
264 -474 -118 0
-264 -474 118 0
-264 474 116 0
265 474 475 -476 0
-265 476 0
-265 -475 0
-265 -474 0
266 -484 -218 0
266 -484 -267 0
266 -484 -242 0
-266 484 0
-266 218 242 267 0
267 -250 -268 0
-267 250 0
-267 268 0
-268 -194 234 270 0
-268 234 269 270 0
268 -270 0
268 -234 0
268 194 -269 0
269 -476 -180 0
-269 476 0
-269 180 0
270 -475 -242 0
-270 475 0
-270 242 0
271 272 -273 0
271 -272 273 0
-271 -272 -273 0
-271 272 273 0
272 259 -260 0
272 -259 260 0
-272 -259 -260 0
-272 259 260 0
273 -485 -263 0
273 -485 -250 268 0
273 -485 250 -268 0
-273 485 0
-273 -250 263 -268 0
-273 250 263 268 0
-274 275 276 321 323 0
-274 275 -276 -321 323 0
274 -323 0
274 276 -321 0
274 -275 0
274 -276 321 0
275 486 261 -262 0
275 194 -261 262 0
275 194 261 -262 0
275 486 -261 262 0
-275 261 262 0
-275 -261 -262 0
-275 -486 -194 0
-276 277 279 293 299 0
276 -279 0
276 -299 0
276 -277 0
276 -293 0
277 -262 -278 0
-277 262 0
-277 278 0
278 -476 -249 0
-278 476 0
-278 249 0
-279 280 290 0
279 -280 0
279 -290 0
280 -281 -285 0
-280 281 0
-280 285 0
-281 241 278 282 0
-281 -262 -278 282 0
281 -282 0
281 -241 278 0
281 262 -278 0
282 -491 -283 0
-282 491 0
-282 283 0
283 474 -134 284 0
283 -474 -136 284 0
-283 -284 0
-283 -474 136 0
-283 474 134 0
-284 473 11 0
284 -473 0
284 -11 0
285 -473 -286 0
-285 473 0
-285 286 0
286 -492 -287 0
-286 492 0
-286 287 0
287 -473 11 -289 0
287 473 11 -288 0
-287 -11 0
-287 -473 289 0
-287 473 288 0
288 474 -145 0
288 -474 -148 0
-288 -474 148 0
-288 474 145 0
289 474 475 476 -477 0
-289 477 0
-289 -476 0
-289 -474 0
-289 -475 0
290 -291 -292 0
-290 291 0
-290 292 0
-291 -262 -278 282 0
-291 262 278 282 0
291 -282 0
291 -262 278 0
291 262 -278 0
292 -474 -286 0
-292 474 0
-292 286 0
293 -294 -295 0
-293 294 0
-293 295 0
294 281 -285 290 0
294 -281 285 290 0
-294 -290 0
-294 281 285 0
-294 -281 -285 0
295 -296 -297 0
-295 296 0
-295 297 0
-296 477 282 292 0
-296 262 282 292 0
296 -292 0
296 -282 0
296 -477 -262 0
297 -493 -298 0
-297 493 0
-297 298 0
298 474 -165 284 0
298 -474 -167 284 0
-298 -284 0
-298 -474 167 0
-298 474 165 0
299 -300 -301 0
-299 300 0
-299 301 0
300 294 -295 0
300 -294 295 0
-300 -294 -295 0
-300 294 295 0
301 -302 -304 0
-301 302 0
-301 304 0
302 295 -303 0
-302 -295 0
-302 303 0
-303 291 292 0
303 -291 0
303 -292 0
-304 305 315 0
304 -305 0
304 -315 0
305 -306 -308 0
-305 306 0
-305 308 0
306 -494 -307 0
-306 494 0
-306 307 0
307 -37 284 0
-307 37 0
-307 -284 0
308 309 -312 0
308 -309 312 0
-308 -309 -312 0
-308 309 312 0
309 -310 -311 0
-309 310 0
-309 311 0
310 -477 -286 0
-310 477 0
-310 286 0
311 -476 -297 0
-311 476 0
-311 297 0
312 297 -313 0
312 -297 313 0
-312 -297 -313 0
-312 297 313 0
313 290 -314 0
-313 -290 0
-313 314 0
-314 282 292 0
314 -282 0
314 -292 0
-315 316 319 0
315 -316 0
315 -319 0
316 -317 -318 0
-316 317 0
-316 318 0
317 -477 -297 0
-317 477 0
-317 297 0
318 -476 -306 0
-318 476 0
-318 306 0
319 -306 -320 0
-319 306 0
-319 320 0
320 310 -311 0
320 -310 311 0
-320 -310 -311 0
-320 310 311 0
321 -487 -267 0
321 -487 -322 0
321 -487 -283 0
-321 487 0
-321 267 283 322 0
322 -473 -287 0
-322 473 0
-322 287 0
-323 324 325 327 330 0
-323 -324 -325 327 330 0
323 -327 0
323 324 -325 0
323 -330 0
323 -324 325 0
324 300 -301 0
324 -300 301 0
-324 -300 -301 0
-324 300 301 0
325 -488 -270 0
325 -488 -326 0
-325 488 0
-325 270 326 0
326 -474 -287 0
-326 474 0
-326 287 0
327 328 -329 0
327 -328 329 0
-327 -328 -329 0
-327 328 329 0
328 -302 304 0
328 302 -304 0
-328 302 304 0
-328 -302 -304 0
329 -489 -298 0
329 -476 -489 -227 0
-329 489 0
-329 227 298 0
-329 476 298 0
-330 331 347 352 355 0
-330 -331 -347 352 355 0
330 -355 0
330 -331 347 0
330 -352 0
330 331 -347 0
-331 -304 333 338 0
-331 332 333 338 0
331 -338 0
331 -333 0
331 304 -332 0
-332 296 297 0
332 -296 0
332 -297 0
333 -334 -336 0
-333 334 0
-333 336 0
334 -495 -335 0
-334 495 0
-334 335 0
335 -67 284 0
-335 67 0
-335 -284 0
336 316 -337 0
336 -316 337 0
-336 -316 -337 0
-336 316 337 0
337 306 -320 0
337 -306 320 0
-337 -306 -320 0
-337 306 320 0
338 -339 -341 0
-338 339 0
-338 341 0
339 315 333 -340 0
339 -315 333 340 0
-339 -333 0
-339 315 340 0
-339 -315 -340 0
340 306 -308 0
340 -306 308 0
-340 -306 -308 0
-340 306 308 0
341 -342 -344 0
-341 342 0
-341 344 0
-342 477 343 0
-342 306 343 0
342 -343 0
342 -477 -306 0
343 -476 -334 0
-343 476 0
-343 334 0
344 -475 -345 0
-344 475 0
-344 345 0
345 -496 -346 0
-345 496 0
-345 346 0
346 -89 284 0
-346 89 0
-346 -284 0
347 -490 -267 0
347 -490 -348 0
-347 490 0
-347 267 348 0
348 -307 326 349 0
-348 307 0
-348 -349 0
-348 -326 0
349 283 -350 0
-349 -283 0
-349 350 0
350 -298 351 0
-350 298 0
-350 -351 0
351 283 -326 0
-351 -283 0
-351 326 0
352 353 -354 0
352 -353 354 0
-352 -353 -354 0
-352 353 354 0
353 339 -341 0
353 -339 341 0
-353 -339 -341 0
-353 339 341 0
354 -491 -349 0
-354 491 0
-354 349 0
-355 356 359 362 381 0
-355 -356 -359 362 381 0
355 -362 0
355 356 -359 0
355 -381 0
355 -356 359 0
356 341 -357 0
356 334 -336 341 0
356 -334 336 341 0
-356 -341 0
-356 334 336 357 0
-356 -334 -336 357 0
357 -345 -358 0
-357 345 0
-357 358 0
-358 317 318 334 0
-358 -317 -318 334 0
-358 475 -317 -318 0
-358 475 317 318 0
358 -317 318 0
358 317 -318 0
358 -475 -334 0
359 -492 349 348 -360 0
-359 360 0
-359 -348 0
-359 492 0
-359 -349 0
-360 335 361 0
360 -335 0
360 -361 0
361 283 287 -307 0
361 474 283 -287 0
-361 -283 0
-361 287 307 0
-361 -474 -287 0
362 363 -378 0
362 -363 378 0
-362 -363 -378 0
-362 363 378 0
-363 -338 365 369 0
-363 364 365 369 0
363 -369 0
363 -365 0
363 338 -364 0
-364 -345 341 -358 0
-364 345 341 358 0
364 -341 0
364 -345 358 0
364 345 -358 0
365 -366 -368 0
-365 366 0
-365 368 0
366 -497 -367 0
-366 497 0
-366 367 0
367 -106 284 0
-367 106 0
-367 -284 0
368 342 -344 0
368 -342 344 0
-368 -342 -344 0
-368 342 344 0
369 -370 -371 0
-369 370 0
-369 371 0
370 366 -368 0
370 -366 368 0
-370 -366 -368 0
-370 366 368 0
-371 372 376 0
371 -372 0
371 -376 0
372 -373 -374 0
-372 373 0
-372 374 0
-373 476 0
-373 334 345 0
373 -476 -334 0
373 -476 -345 0
374 -498 -375 0
-374 498 0
-374 375 0
375 -117 284 0
-375 117 0
-375 -284 0
376 -366 -377 0
-376 366 0
-376 377 0
377 -476 -374 0
-377 476 0
-377 374 0
378 -493 -346 0
378 -493 -380 0
378 -493 -379 0
-378 493 0
-378 346 379 380 0
379 -476 -335 0
-379 476 0
-379 335 0
-380 -283 348 0
-380 298 348 0
380 -348 0
380 283 -298 0
-381 382 383 387 391 0
-381 -382 -383 387 391 0
381 -387 0
381 382 -383 0
381 -391 0
381 -382 383 0
382 -370 371 0
382 370 -371 0
-382 370 371 0
-382 -370 -371 0
383 -494 -386 0
383 -494 -384 0
-383 494 0
-383 384 386 0
-384 379 385 0
384 -379 0
384 -385 0
385 -476 -346 0
-385 476 0
-385 346 0
386 -367 379 0
386 -350 349 379 0
-386 -379 0
-386 -349 367 0
-386 350 367 0
387 388 -390 0
387 -388 390 0
-387 -388 -390 0
-387 388 390 0
388 376 -389 0
388 -376 389 0
-388 -376 -389 0
-388 376 389 0
389 373 -374 0
389 -373 374 0
-389 -373 -374 0
-389 373 374 0
390 -495 -379 0
390 -495 -375 385 0
-390 495 0
-390 379 -385 0
-390 375 379 0
-391 392 399 400 419 0
-391 -392 -399 400 419 0
391 -419 0
391 -392 399 0
391 -400 0
391 392 -399 0
-392 -376 394 0
-392 344 393 394 0
392 -394 0
392 -344 376 0
392 376 -393 0
393 -476 -366 0
-393 476 0
-393 366 0
394 -395 -396 0
-394 395 0
-394 396 0
395 366 -377 0
395 -366 377 0
-395 -366 -377 0
-395 366 377 0
396 -474 -397 0
-396 474 0
-396 397 0
397 -500 -398 0
-397 500 0
-397 398 0
398 -146 284 0
-398 146 0
-398 -284 0
399 -496 -349 0
399 -474 -496 -398 0
-399 496 0
-399 349 398 0
-399 474 349 0
400 401 -417 0
400 -401 417 0
-400 -401 -417 0
-400 401 417 0
-401 402 403 406 0
401 -402 0
401 -406 0
401 -403 0
402 395 -396 0
402 -395 396 0
-402 -395 -396 0
-402 395 396 0
403 -397 -404 0
-403 397 0
-403 404 0
404 -501 -405 0
-404 501 0
-404 405 0
405 -166 284 0
-405 166 0
-405 -284 0
406 -407 -409 0
-406 407 0
-406 409 0
407 403 -408 0
407 -477 -374 403 0
-407 -403 0
-407 374 408 0
-407 477 408 0
408 -475 -397 0
-408 475 0
-408 397 0
-409 410 415 0
409 -410 0
409 -415 0
410 -411 -412 0
-410 411 0
-410 412 0
411 -477 -404 0
-411 477 0
-411 404 0
412 -476 -413 0
-412 476 0
-412 413 0
413 -502 -414 0
-413 502 0
-413 414 0
414 -182 284 0
-414 182 0
-414 -284 0
415 -413 -416 0
-415 413 0
-415 416 0
416 397 -404 0
416 -397 404 0
-416 -397 -404 0
-416 397 404 0
417 -497 -385 0
417 -497 -418 0
-417 497 0
-417 385 418 0
418 -475 -398 0
-418 475 0
-418 398 0
-419 420 423 425 427 0
-419 420 -423 -425 427 0
419 -427 0
419 -423 425 0
419 -420 0
419 423 -425 0
420 421 -422 0
420 -421 422 0
-420 -421 -422 0
-420 421 422 0
421 -407 409 0
421 407 -409 0
-421 407 409 0
-421 -407 -409 0
422 -498 -379 0
422 -498 -405 0
-422 498 0
-422 379 405 0
423 410 -424 0
423 -410 424 0
-423 -410 -424 0
-423 410 424 0
424 413 -416 0
424 -413 416 0
-424 -413 -416 0
-424 413 416 0
425 -500 -426 0
-425 500 0
-425 426 0
426 398 405 -414 0
426 475 -398 405 0
-426 -405 0
-426 398 414 0
-426 -475 -398 0
-427 428 435 437 438 0
-427 -428 -435 437 438 0
427 -438 0
427 -428 435 0
427 -437 0
427 428 -435 0
-428 503 430 431 0
-428 429 430 431 0
428 -431 0
428 -430 0
428 -503 -429 0
429 -229 284 0
-429 229 0
-429 -284 0
430 411 -412 0
430 -411 412 0
-430 -411 -412 0
-430 411 412 0
431 -432 -433 0
-431 432 0
-431 433 0
432 -477 -413 0
-432 477 0
-432 413 0
433 -504 -434 0
-433 504 0
-433 434 0
434 -244 284 0
-434 244 0
-434 -284 0
435 -501 -436 0
435 -501 -434 0
435 -501 -429 0
-435 501 0
-435 436 429 434 0
436 -405 418 0
-436 405 0
-436 -418 0
437 502 432 -433 0
437 418 -432 433 0
437 418 432 -433 0
437 502 -432 433 0
-437 432 433 0
-437 -432 -433 0
-437 -502 -418 0
-438 -439 -444 445 0
-438 439 444 445 0
438 -445 0
438 -439 444 0
438 439 -444 0
439 -440 -442 0
-439 440 0
-439 442 0
440 -505 -441 0
-440 505 0
-440 441 0
441 -252 284 0
-441 252 0
-441 -284 0
442 -506 -443 0
-442 506 0
-442 443 0
443 474 475 -476 284 0
-443 -474 0
-443 -284 0
-443 476 0
-443 -475 0
444 -503 -441 0
-444 503 0
-444 441 0
445 505 -506 -443 0
445 -505 -441 443 0
445 -505 506 -443 0
-445 505 506 0
-445 505 443 0
-445 441 443 0
-445 -505 -506 -443 0
-510 0
2 0

